sat
(:added-eqs                       12322
 :arith-eq-adapter                742
 :arith-bound-propagations-lp     875
 :arith-branch                    8
 :arith-conflicts                 1443
 :arith-cube-calls                3
 :arith-diseq                     6262
 :arith-fixed-eqs                 3478
 :arith-gcd-calls                 123
 :arith-grobner-calls             347
 :arith-grobner-conflicts         70
 :arith-hnf-calls                 1
 :arith-horner-calls              102
 :arith-horner-conflicts          1
 :arith-horner-cross-nested-forms 3689
 :arith-lower                     7097
 :arith-make-feasible             6583
 :arith-max-columns               1014
 :arith-max-rows                  404
 :arith-nla-add-bounds            50
 :arith-nla-lemmas                711
 :arith-nla-propagate-bounds      511
 :arith-nla-propagate-eq          6562
 :arith-nra-calls                 210
 :arith-offset-eqs                1539
 :arith-patches                   123
 :arith-patches-success           111
 :arith-upper                     7430
 :binary-propagations             19851
 :card2bv-rewrites                2
 :cnf-encoding-aux-vars           37
 :conflicts                       459
 :decisions                       47840
 :del-clause                      1664
 :elim-unconstrained              96
 :final-checks                    638
 :max-memory                      26.26
 :memory                          19.05
 :minimized-lits                  685
 :mk-bool-var                     4931
 :mk-clause                       3201
 :mk-clause-binary                13869
 :nlsat-conflicts                 19667
 :nlsat-decisions                 1606
 :nlsat-propagations              577992
 :nlsat-restarts                  4
 :nlsat-stages                    264792
 :num-allocs                      4455759221.00
 :num-checks                      2
 :propagations                    39067
 :restarts                        3
 :rlimit-count                    13766248
 :solve-eqs-elim-vars             50
 :solve-eqs-steps                 607
 :time                            5.33
 :total-time                      5.35)
